784 1512
1 2 1
1 29 4
2 3 4
2 30 1
3 4 5
3 31 5
4 5 1
4 32 1
5 6 2
5 33 1
6 7 1
6 34 5
7 8 1
7 35 2
8 9 1
8 36 4
9 10 3
9 37 3
10 11 1
10 38 2
11 12 2
11 39 2
12 13 2
12 40 2
13 14 1
13 41 4
14 15 5
14 42 5
15 16 5
15 43 2
16 17 4
16 44 1
17 18 2
17 45 3
18 19 2
18 46 3
19 20 4
19 47 5
20 21 1
20 48 2
21 22 2
21 49 5
22 23 1
22 50 4
23 24 2
23 51 5
24 25 2
24 52 3
25 26 1
25 53 2
26 27 5
26 54 2
27 28 1
27 55 3
28 56 5
29 30 3
29 57 1
30 31 3
30 58 4
31 32 2
31 59 1
32 33 5
32 60 3
33 34 3
33 61 5
34 35 5
34 62 2
35 36 1
35 63 4
36 37 2
36 64 1
37 38 3
37 65 3
38 39 2
38 66 3
39 40 5
39 67 2
40 41 3
40 68 3
41 42 3
41 69 5
42 43 4
42 70 4
43 44 5
43 71 4
44 45 3
44 72 3
45 46 2
45 73 4
46 47 5
46 74 1
47 48 3
47 75 1
48 49 3
48 76 4
49 50 2
49 77 4
50 51 3
50 78 1
51 52 4
51 79 3
52 53 2
52 80 4
53 54 1
53 81 4
54 55 1
54 82 1
55 56 3
55 83 5
56 84 1
57 58 1
57 85 3
58 59 3
58 86 5
59 60 3
59 87 5
60 61 2
60 88 4
61 62 5
61 89 2
62 63 5
62 90 5
63 64 3
63 91 2
64 65 2
64 92 3
65 66 1
65 93 1
66 67 4
66 94 1
67 68 3
67 95 1
68 69 2
68 96 1
69 70 1
69 97 4
70 71 3
70 98 3
71 72 2
71 99 2
72 73 3
72 100 2
73 74 4
73 101 1
74 75 4
74 102 1
75 76 1
75 103 5
76 77 1
76 104 3
77 78 5
77 105 5
78 79 1
78 106 4
79 80 5
79 107 3
80 81 2
80 108 4
81 82 3
81 109 4
82 83 4
82 110 4
83 84 5
83 111 3
84 112 2
85 86 3
85 113 1
86 87 4
86 114 1
87 88 3
87 115 5
88 89 2
88 116 2
89 90 1
89 117 5
90 91 3
90 118 5
91 92 3
91 119 5
92 93 5
92 120 3
93 94 5
93 121 2
94 95 3
94 122 3
95 96 3
95 123 3
96 97 4
96 124 1
97 98 1
97 125 2
98 99 5
98 126 5
99 100 4
99 127 1
100 101 4
100 128 1
101 102 3
101 129 4
102 103 5
102 130 5
103 104 3
103 131 4
104 105 2
104 132 3
105 106 2
105 133 2
106 107 4
106 134 3
107 108 2
107 135 1
108 109 4
108 136 1
109 110 2
109 137 4
110 111 3
110 138 5
111 112 2
111 139 3
112 140 4
113 114 5
113 141 1
114 115 2
114 142 4
115 116 3
115 143 1
116 117 1
116 144 3
117 118 3
117 145 1
118 119 4
118 146 2
119 120 3
119 147 3
120 121 3
120 148 5
121 122 4
121 149 5
122 123 5
122 150 2
123 124 5
123 151 5
124 125 4
124 152 3
125 126 4
125 153 2
126 127 4
126 154 4
127 128 4
127 155 4
128 129 5
128 156 2
129 130 4
129 157 4
130 131 2
130 158 4
131 132 2
131 159 3
132 133 5
132 160 2
133 134 5
133 161 2
134 135 4
134 162 1
135 136 3
135 163 2
136 137 1
136 164 3
137 138 3
137 165 1
138 139 5
138 166 3
139 140 3
139 167 4
140 168 2
141 142 1
141 169 1
142 143 2
142 170 4
143 144 4
143 171 3
144 145 4
144 172 2
145 146 3
145 173 4
146 147 2
146 174 5
147 148 3
147 175 5
148 149 3
148 176 2
149 150 3
149 177 5
150 151 5
150 178 1
151 152 4
151 179 2
152 153 1
152 180 3
153 154 1
153 181 3
154 155 1
154 182 4
155 156 3
155 183 1
156 157 3
156 184 5
157 158 1
157 185 1
158 159 5
158 186 1
159 160 3
159 187 2
160 161 1
160 188 5
161 162 2
161 189 2
162 163 3
162 190 4
163 164 4
163 191 2
164 165 4
164 192 3
165 166 1
165 193 5
166 167 1
166 194 2
167 168 1
167 195 5
168 196 3
169 170 3
169 197 2
170 171 5
170 198 3
171 172 1
171 199 5
172 173 4
172 200 2
173 174 2
173 201 1
174 175 2
174 202 2
175 176 5
175 203 2
176 177 2
176 204 5
177 178 4
177 205 5
178 179 2
178 206 5
179 180 3
179 207 4
180 181 3
180 208 4
181 182 4
181 209 5
182 183 5
182 210 2
183 184 2
183 211 3
184 185 2
184 212 4
185 186 3
185 213 4
186 187 5
186 214 1
187 188 5
187 215 3
188 189 1
188 216 1
189 190 4
189 217 2
190 191 3
190 218 2
191 192 5
191 219 2
192 193 3
192 220 5
193 194 4
193 221 3
194 195 5
194 222 3
195 196 2
195 223 2
196 224 4
197 198 5
197 225 1
198 199 4
198 226 4
199 200 1
199 227 4
200 201 3
200 228 5
201 202 3
201 229 4
202 203 1
202 230 2
203 204 4
203 231 5
204 205 4
204 232 4
205 206 3
205 233 4
206 207 3
206 234 4
207 208 2
207 235 5
208 209 2
208 236 4
209 210 4
209 237 4
210 211 1
210 238 1
211 212 2
211 239 4
212 213 3
212 240 4
213 214 2
213 241 3
214 215 5
214 242 5
215 216 5
215 243 1
216 217 3
216 244 1
217 218 3
217 245 3
218 219 1
218 246 1
219 220 1
219 247 4
220 221 5
220 248 3
221 222 1
221 249 2
222 223 3
222 250 3
223 224 1
223 251 1
224 252 1
225 226 3
225 253 5
226 227 3
226 254 4
227 228 5
227 255 5
228 229 1
228 256 2
229 230 2
229 257 5
230 231 2
230 258 5
231 232 5
231 259 5
232 233 3
232 260 3
233 234 3
233 261 1
234 235 2
234 262 1
235 236 4
235 263 2
236 237 2
236 264 3
237 238 4
237 265 1
238 239 4
238 266 1
239 240 1
239 267 2
240 241 1
240 268 3
241 242 4
241 269 5
242 243 2
242 270 1
243 244 1
243 271 4
244 245 2
244 272 2
245 246 5
245 273 3
246 247 1
246 274 3
247 248 1
247 275 2
248 249 4
248 276 2
249 250 4
249 277 2
250 251 4
250 278 2
251 252 5
251 279 4
252 280 1
253 254 4
253 281 4
254 255 2
254 282 3
255 256 2
255 283 3
256 257 5
256 284 1
257 258 3
257 285 5
258 259 5
258 286 4
259 260 1
259 287 5
260 261 1
260 288 3
261 262 2
261 289 3
262 263 5
262 290 1
263 264 2
263 291 3
264 265 4
264 292 5
265 266 5
265 293 1
266 267 5
266 294 2
267 268 3
267 295 5
268 269 5
268 296 3
269 270 2
269 297 5
270 271 5
270 298 2
271 272 5
271 299 5
272 273 1
272 300 1
273 274 2
273 301 4
274 275 3
274 302 4
275 276 4
275 303 3
276 277 2
276 304 5
277 278 4
277 305 3
278 279 5
278 306 5
279 280 3
279 307 3
280 308 1
281 282 4
281 309 5
282 283 2
282 310 5
283 284 1
283 311 4
284 285 3
284 312 3
285 286 2
285 313 2
286 287 2
286 314 5
287 288 5
287 315 2
288 289 3
288 316 3
289 290 1
289 317 2
290 291 4
290 318 2
291 292 2
291 319 4
292 293 2
292 320 2
293 294 2
293 321 2
294 295 2
294 322 4
295 296 1
295 323 5
296 297 1
296 324 1
297 298 2
297 325 5
298 299 4
298 326 3
299 300 2
299 327 2
300 301 1
300 328 1
301 302 3
301 329 4
302 303 5
302 330 5
303 304 3
303 331 1
304 305 3
304 332 2
305 306 5
305 333 5
306 307 2
306 334 4
307 308 2
307 335 3
308 336 2
309 310 4
309 337 2
310 311 2
310 338 1
311 312 4
311 339 5
312 313 5
312 340 5
313 314 5
313 341 1
314 315 3
314 342 2
315 316 3
315 343 3
316 317 4
316 344 1
317 318 2
317 345 4
318 319 1
318 346 2
319 320 2
319 347 3
320 321 2
320 348 1
321 322 3
321 349 4
322 323 5
322 350 1
323 324 2
323 351 4
324 325 4
324 352 1
325 326 1
325 353 4
326 327 1
326 354 4
327 328 5
327 355 2
328 329 4
328 356 1
329 330 2
329 357 1
330 331 3
330 358 2
331 332 4
331 359 1
332 333 5
332 360 4
333 334 5
333 361 5
334 335 2
334 362 4
335 336 3
335 363 1
336 364 2
337 338 1
337 365 5
338 339 4
338 366 1
339 340 4
339 367 1
340 341 5
340 368 1
341 342 4
341 369 4
342 343 1
342 370 4
343 344 2
343 371 3
344 345 2
344 372 4
345 346 3
345 373 2
346 347 3
346 374 4
347 348 5
347 375 3
348 349 2
348 376 3
349 350 2
349 377 3
350 351 4
350 378 4
351 352 5
351 379 3
352 353 1
352 380 1
353 354 5
353 381 4
354 355 1
354 382 1
355 356 1
355 383 2
356 357 3
356 384 4
357 358 4
357 385 2
358 359 1
358 386 3
359 360 4
359 387 5
360 361 1
360 388 5
361 362 4
361 389 2
362 363 2
362 390 3
363 364 3
363 391 5
364 392 4
365 366 1
365 393 3
366 367 3
366 394 2
367 368 4
367 395 1
368 369 2
368 396 4
369 370 3
369 397 1
370 371 4
370 398 2
371 372 4
371 399 2
372 373 4
372 400 3
373 374 1
373 401 4
374 375 3
374 402 5
375 376 5
375 403 4
376 377 1
376 404 5
377 378 3
377 405 3
378 379 3
378 406 2
379 380 2
379 407 2
380 381 1
380 408 1
381 382 5
381 409 4
382 383 2
382 410 2
383 384 4
383 411 3
384 385 1
384 412 2
385 386 2
385 413 4
386 387 5
386 414 3
387 388 4
387 415 4
388 389 3
388 416 2
389 390 3
389 417 2
390 391 2
390 418 1
391 392 3
391 419 4
392 420 3
393 394 4
393 421 1
394 395 5
394 422 1
395 396 4
395 423 1
396 397 4
396 424 3
397 398 2
397 425 1
398 399 1
398 426 2
399 400 5
399 427 5
400 401 3
400 428 3
401 402 5
401 429 1
402 403 1
402 430 2
403 404 2
403 431 1
404 405 3
404 432 1
405 406 3
405 433 5
406 407 5
406 434 4
407 408 5
407 435 5
408 409 4
408 436 5
409 410 1
409 437 3
410 411 5
410 438 3
411 412 2
411 439 2
412 413 5
412 440 1
413 414 2
413 441 2
414 415 3
414 442 3
415 416 3
415 443 3
416 417 1
416 444 5
417 418 3
417 445 1
418 419 4
418 446 4
419 420 3
419 447 2
420 448 3
421 422 5
421 449 3
422 423 2
422 450 3
423 424 2
423 451 2
424 425 2
424 452 1
425 426 1
425 453 4
426 427 4
426 454 5
427 428 5
427 455 5
428 429 1
428 456 2
429 430 2
429 457 3
430 431 4
430 458 1
431 432 2
431 459 4
432 433 5
432 460 5
433 434 3
433 461 2
434 435 1
434 462 5
435 436 3
435 463 1
436 437 1
436 464 1
437 438 5
437 465 4
438 439 3
438 466 5
439 440 3
439 467 2
440 441 1
440 468 5
441 442 5
441 469 5
442 443 2
442 470 4
443 444 4
443 471 5
444 445 5
444 472 2
445 446 5
445 473 1
446 447 2
446 474 5
447 448 1
447 475 2
448 476 4
449 450 3
449 477 4
450 451 4
450 478 5
451 452 5
451 479 1
452 453 2
452 480 5
453 454 2
453 481 4
454 455 1
454 482 5
455 456 5
455 483 5
456 457 3
456 484 4
457 458 5
457 485 5
458 459 4
458 486 4
459 460 5
459 487 4
460 461 1
460 488 1
461 462 1
461 489 1
462 463 3
462 490 3
463 464 3
463 491 3
464 465 1
464 492 1
465 466 2
465 493 4
466 467 3
466 494 1
467 468 4
467 495 4
468 469 5
468 496 3
469 470 2
469 497 4
470 471 2
470 498 5
471 472 1
471 499 4
472 473 2
472 500 2
473 474 5
473 501 1
474 475 4
474 502 1
475 476 2
475 503 4
476 504 3
477 478 4
477 505 5
478 479 3
478 506 2
479 480 2
479 507 3
480 481 4
480 508 1
481 482 2
481 509 1
482 483 3
482 510 3
483 484 4
483 511 1
484 485 2
484 512 2
485 486 3
485 513 3
486 487 3
486 514 2
487 488 2
487 515 4
488 489 4
488 516 5
489 490 4
489 517 5
490 491 1
490 518 2
491 492 4
491 519 5
492 493 2
492 520 4
493 494 4
493 521 1
494 495 4
494 522 5
495 496 5
495 523 1
496 497 5
496 524 5
497 498 4
497 525 2
498 499 1
498 526 4
499 500 5
499 527 1
500 501 2
500 528 5
501 502 5
501 529 5
502 503 5
502 530 1
503 504 4
503 531 3
504 532 1
505 506 4
505 533 1
506 507 5
506 534 4
507 508 3
507 535 2
508 509 2
508 536 4
509 510 1
509 537 4
510 511 4
510 538 2
511 512 1
511 539 3
512 513 3
512 540 2
513 514 5
513 541 1
514 515 1
514 542 4
515 516 2
515 543 3
516 517 4
516 544 4
517 518 1
517 545 4
518 519 3
518 546 1
519 520 3
519 547 5
520 521 1
520 548 2
521 522 2
521 549 1
522 523 3
522 550 3
523 524 1
523 551 5
524 525 5
524 552 4
525 526 5
525 553 3
526 527 3
526 554 1
527 528 3
527 555 2
528 529 4
528 556 3
529 530 2
529 557 3
530 531 5
530 558 5
531 532 1
531 559 1
532 560 3
533 534 1
533 561 1
534 535 4
534 562 1
535 536 3
535 563 2
536 537 4
536 564 1
537 538 4
537 565 4
538 539 2
538 566 2
539 540 1
539 567 1
540 541 3
540 568 4
541 542 1
541 569 2
542 543 2
542 570 4
543 544 3
543 571 2
544 545 4
544 572 3
545 546 4
545 573 2
546 547 3
546 574 5
547 548 5
547 575 4
548 549 2
548 576 1
549 550 4
549 577 2
550 551 1
550 578 3
551 552 3
551 579 3
552 553 4
552 580 1
553 554 1
553 581 5
554 555 1
554 582 2
555 556 1
555 583 1
556 557 2
556 584 2
557 558 4
557 585 3
558 559 3
558 586 2
559 560 2
559 587 1
560 588 4
561 562 3
561 589 4
562 563 4
562 590 1
563 564 2
563 591 3
564 565 5
564 592 3
565 566 5
565 593 2
566 567 1
566 594 4
567 568 3
567 595 1
568 569 3
568 596 2
569 570 1
569 597 2
570 571 5
570 598 1
571 572 2
571 599 4
572 573 2
572 600 1
573 574 4
573 601 5
574 575 2
574 602 1
575 576 1
575 603 5
576 577 1
576 604 3
577 578 4
577 605 2
578 579 2
578 606 3
579 580 1
579 607 1
580 581 4
580 608 2
581 582 5
581 609 5
582 583 1
582 610 3
583 584 2
583 611 4
584 585 5
584 612 5
585 586 5
585 613 5
586 587 5
586 614 2
587 588 1
587 615 4
588 616 2
589 590 2
589 617 5
590 591 1
590 618 1
591 592 1
591 619 2
592 593 2
592 620 5
593 594 3
593 621 3
594 595 1
594 622 2
595 596 3
595 623 2
596 597 3
596 624 5
597 598 4
597 625 1
598 599 4
598 626 2
599 600 4
599 627 3
600 601 3
600 628 4
601 602 1
601 629 2
602 603 2
602 630 1
603 604 1
603 631 3
604 605 3
604 632 1
605 606 3
605 633 5
606 607 2
606 634 3
607 608 5
607 635 3
608 609 2
608 636 2
609 610 4
609 637 2
610 611 4
610 638 2
611 612 2
611 639 1
612 613 3
612 640 4
613 614 5
613 641 3
614 615 3
614 642 1
615 616 3
615 643 5
616 644 2
617 618 2
617 645 5
618 619 2
618 646 4
619 620 3
619 647 5
620 621 1
620 648 5
621 622 3
621 649 1
622 623 3
622 650 2
623 624 2
623 651 2
624 625 2
624 652 5
625 626 1
625 653 4
626 627 1
626 654 1
627 628 4
627 655 3
628 629 4
628 656 1
629 630 1
629 657 2
630 631 4
630 658 2
631 632 3
631 659 1
632 633 2
632 660 4
633 634 2
633 661 4
634 635 1
634 662 2
635 636 1
635 663 4
636 637 4
636 664 1
637 638 1
637 665 1
638 639 5
638 666 5
639 640 5
639 667 5
640 641 4
640 668 2
641 642 4
641 669 5
642 643 3
642 670 4
643 644 1
643 671 1
644 672 1
645 646 4
645 673 5
646 647 3
646 674 2
647 648 1
647 675 2
648 649 2
648 676 1
649 650 3
649 677 2
650 651 1
650 678 3
651 652 3
651 679 5
652 653 3
652 680 3
653 654 3
653 681 5
654 655 5
654 682 2
655 656 4
655 683 3
656 657 3
656 684 1
657 658 2
657 685 3
658 659 4
658 686 4
659 660 2
659 687 5
660 661 3
660 688 5
661 662 3
661 689 5
662 663 3
662 690 3
663 664 2
663 691 3
664 665 4
664 692 1
665 666 5
665 693 2
666 667 3
666 694 1
667 668 4
667 695 3
668 669 1
668 696 3
669 670 4
669 697 1
670 671 1
670 698 1
671 672 2
671 699 5
672 700 5
673 674 3
673 701 4
674 675 3
674 702 3
675 676 3
675 703 3
676 677 5
676 704 4
677 678 5
677 705 5
678 679 4
678 706 5
679 680 5
679 707 3
680 681 4
680 708 3
681 682 2
681 709 2
682 683 4
682 710 2
683 684 3
683 711 3
684 685 1
684 712 1
685 686 1
685 713 1
686 687 3
686 714 3
687 688 3
687 715 4
688 689 5
688 716 1
689 690 5
689 717 4
690 691 3
690 718 3
691 692 4
691 719 4
692 693 4
692 720 1
693 694 4
693 721 3
694 695 1
694 722 3
695 696 5
695 723 2
696 697 1
696 724 3
697 698 3
697 725 2
698 699 3
698 726 1
699 700 3
699 727 4
700 728 5
701 702 4
701 729 3
702 703 5
702 730 5
703 704 3
703 731 2
704 705 2
704 732 2
705 706 5
705 733 3
706 707 5
706 734 5
707 708 1
707 735 5
708 709 3
708 736 4
709 710 5
709 737 1
710 711 4
710 738 2
711 712 1
711 739 5
712 713 2
712 740 5
713 714 1
713 741 5
714 715 1
714 742 5
715 716 1
715 743 3
716 717 1
716 744 2
717 718 3
717 745 1
718 719 5
718 746 3
719 720 5
719 747 1
720 721 5
720 748 1
721 722 5
721 749 1
722 723 1
722 750 2
723 724 5
723 751 4
724 725 4
724 752 4
725 726 1
725 753 1
726 727 3
726 754 4
727 728 1
727 755 4
728 756 3
729 730 2
729 757 1
730 731 4
730 758 4
731 732 4
731 759 5
732 733 2
732 760 3
733 734 3
733 761 2
734 735 4
734 762 1
735 736 5
735 763 1
736 737 1
736 764 5
737 738 2
737 765 5
738 739 3
738 766 3
739 740 1
739 767 3
740 741 2
740 768 3
741 742 5
741 769 1
742 743 3
742 770 3
743 744 4
743 771 5
744 745 1
744 772 2
745 746 2
745 773 2
746 747 1
746 774 4
747 748 2
747 775 1
748 749 3
748 776 3
749 750 2
749 777 3
750 751 1
750 778 1
751 752 3
751 779 1
752 753 1
752 780 2
753 754 1
753 781 1
754 755 1
754 782 2
755 756 2
755 783 3
756 784 3
757 758 3
758 759 3
759 760 5
760 761 1
761 762 1
762 763 2
763 764 4
764 765 3
765 766 1
766 767 4
767 768 2
768 769 5
769 770 2
770 771 1
771 772 1
772 773 1
773 774 5
774 775 3
775 776 3
776 777 5
777 778 5
778 779 1
779 780 5
780 781 2
781 782 3
782 783 2
783 784 2
